This is Ipopt version 3.13.2, running with linear solver mumps.
NOTE: Other linear solvers might be more efficient (see Ipopt documentation).

Number of nonzeros in equality constraint Jacobian...:    65320
Number of nonzeros in inequality constraint Jacobian.:   135541
Number of nonzeros in Lagrangian Hessian.............:        0

Total number of variables............................:     2004
                     variables with only lower bounds:      200
                variables with lower and upper bounds:      300
                     variables with only upper bounds:        0
Total number of equality constraints.................:     1394
Total number of inequality constraints...............:     2400
        inequality constraints with only lower bounds:        0
   inequality constraints with lower and upper bounds:     1200
        inequality constraints with only upper bounds:     1200

iter    objective    inf_pr   inf_du lg(mu)  ||d||  lg(rg) alpha_du alpha_pr  ls
   0  1.0000000e+02 6.16e+00 1.07e+01  -3.0 0.00e+00    -  0.00e+00 0.00e+00   0
   1  9.2421169e+01 5.93e+00 1.71e+01  -3.0 5.72e+00    -  3.79e-02 3.46e-02f  1
   2  9.2108821e+01 9.73e+00 5.16e+01  -3.0 5.14e+00    -  2.56e-02 5.42e-02h  1
   3  8.5780566e+01 1.30e+01 1.28e+01  -3.0 3.82e+00    -  3.27e-02 7.47e-02f  1
   4  8.9219793e+01 1.31e+01 1.17e+01  -3.0 2.62e+00    -  5.68e-02 6.93e-02h  2
   5  9.0855922e+01 1.30e+01 1.10e+01  -3.0 2.30e+00    -  7.03e-02 2.28e-02h  4
   6  9.1769656e+01 1.28e+01 1.09e+01  -3.0 2.96e+00    -  8.25e-02 1.21e-02h  5
   7  9.2262810e+01 1.28e+01 1.08e+01  -3.0 2.65e+00    -  7.16e-02 6.61e-03h  6
   8  9.2398450e+01 1.27e+01 1.07e+01  -3.0 2.48e+00    -  9.75e-02 1.85e-03h  8
   9  3.1664959e+01 6.41e+01 2.72e+02  -3.0 3.48e+00    -  1.90e-02 5.36e-01f  1
iter    objective    inf_pr   inf_du lg(mu)  ||d||  lg(rg) alpha_du alpha_pr  ls
  10  3.6926833e+01 6.12e+01 2.53e+02  -3.0 5.38e+00    -  2.74e-02 4.51e-02h  1
  11  3.7395403e+01 6.10e+01 2.52e+02  -3.0 4.18e+00    -  1.31e-02 4.01e-03h  1
  12  5.3702557e+01 5.27e+01 2.19e+02  -3.0 4.54e+00    -  1.59e-02 1.36e-01h  1
  13  5.6492163e+01 5.11e+01 2.11e+02  -3.0 3.21e+00    -  9.90e-02 2.92e-02h  1
  14  5.7656645e+01 5.05e+01 2.06e+02  -3.0 6.83e+00    -  9.34e-04 1.32e-02h  1
  15  6.3721270e+01 4.74e+01 1.86e+02  -3.0 9.60e+00    -  2.23e-02 6.13e-02h  1
  16  8.2053416e+01 3.82e+01 1.31e+02  -3.0 7.41e+00    -  1.05e-01 1.99e-01h  1
  17  8.4024445e+01 3.72e+01 1.25e+02  -3.0 2.13e+00    -  1.26e-01 2.73e-02h  4
  18  8.5085468e+01 3.66e+01 1.22e+02  -3.0 1.60e+00    -  2.58e-01 1.53e-02h  6
  19  8.5088933e+01 3.66e+01 1.22e+02  -3.0 1.11e+00    -  1.20e-02 6.41e-05H  1
iter    objective    inf_pr   inf_du lg(mu)  ||d||  lg(rg) alpha_du alpha_pr  ls
  20  8.5432561e+01 3.64e+01 1.21e+02  -3.0 2.92e+00    -  2.63e-02 5.75e-03h  5
  21  8.5534649e+01 3.63e+01 1.20e+02  -3.0 3.81e+00    -  3.52e-02 1.82e-03h  8
  22  8.5561531e+01 3.63e+01 1.20e+02  -3.0 3.76e+00    -  9.26e-03 4.82e-04h 10
  23  8.5563272e+01 3.63e+01 1.20e+02  -3.0 3.79e+00    -  1.80e-01 3.13e-05h 14
  24  8.5564070e+01 3.63e+01 1.20e+02  -3.0 1.16e+00    -  1.09e-01 1.23e-05h 17
  25  8.6563925e+01 3.57e+01 1.17e+02  -3.0 1.16e+00    -  3.20e-02 1.56e-02H  1
  26  1.0200667e+02 2.72e+01 8.00e+01  -3.0 1.34e+00    -  1.33e-03 2.42e-01h  1
  27  1.1457733e+02 2.00e+01 6.74e+01  -3.0 1.29e+00    -  2.63e-01 2.66e-01h  1
  28  1.2791246e+02 1.18e+01 7.34e+01  -3.0 8.49e-01    -  5.05e-01 4.15e-01h  1
  29  1.4001516e+02 4.37e+00 1.69e+01  -3.0 6.00e-01    -  6.39e-01 8.70e-01h  1
iter    objective    inf_pr   inf_du lg(mu)  ||d||  lg(rg) alpha_du alpha_pr  ls
  30  1.3380055e+02 1.90e+00 4.91e+00  -3.0 6.76e-01    -  2.46e-01 5.99e-01f  1
  31  1.3134520e+02 1.46e+00 3.76e+00  -3.0 1.25e+00    -  2.76e-01 2.32e-01h  1
  32  1.2750518e+02 1.29e+00 2.12e+00  -3.0 1.90e+00    -  2.35e-01 3.49e-01f  1
  33  1.2531040e+02 1.02e+00 2.01e+00  -3.0 1.74e+00    -  3.89e-01 2.84e-01h  1
  34  1.2463804e+02 8.11e-01 1.48e+00  -3.0 1.01e+00    -  2.42e-01 2.13e-01h  1
  35  1.2361624e+02 5.73e-01 1.05e+00  -3.0 1.04e+00    -  2.27e-01 3.08e-01h  1
  36  1.2250336e+02 6.63e-01 1.47e+00  -3.0 8.10e-01    -  3.20e-01 5.57e-01h  1
  37  1.2233418e+02 5.53e-01 1.20e+00  -3.0 5.80e-01    -  4.08e-01 1.84e-01h  1
  38  1.2192606e+02 3.13e-01 2.51e+00  -3.0 8.69e-01    -  7.03e-01 5.17e-01h  1
  39  1.2172087e+02 2.12e-01 2.47e+00  -3.0 5.54e-01    -  8.27e-01 5.79e-01h  1
iter    objective    inf_pr   inf_du lg(mu)  ||d||  lg(rg) alpha_du alpha_pr  ls
  40  1.2162590e+02 2.65e-01 1.77e+00  -3.0 4.49e-01    -  8.52e-01 8.12e-01h  1
  41  1.2163089e+02 5.77e-02 4.77e-01  -3.0 1.53e-01    -  9.99e-01 1.00e+00h  1
  42  1.2162862e+02 1.71e-02 3.42e-01  -3.0 8.80e-02    -  1.00e+00 1.00e+00h  1
  43  1.2163478e+02 6.77e-03 1.57e-01  -3.0 4.46e-02    -  1.00e+00 1.00e+00h  1
  44  1.2163748e+02 1.25e-03 6.08e-02  -3.0 5.57e-02    -  1.00e+00 1.00e+00h  1
  45  1.2163913e+02 1.53e-03 1.03e-01  -3.0 3.32e-01    -  1.00e+00 1.00e+00H  1
  46  1.2163154e+02 7.62e-03 1.19e-01  -3.0 1.89e-01    -  1.00e+00 1.00e+00h  1
  47  1.2163199e+02 1.07e-03 1.50e-01  -3.0 2.06e-01    -  1.00e+00 1.00e+00h  1
  48  1.2163512e+02 3.14e-03 2.33e-01  -3.0 6.44e-02    -  1.00e+00 1.00e+00h  1
  49  1.2163508e+02 2.65e-03 7.47e-02  -3.0 6.04e-02    -  1.00e+00 1.00e+00h  1
iter    objective    inf_pr   inf_du lg(mu)  ||d||  lg(rg) alpha_du alpha_pr  ls
  50  1.2163724e+02 8.75e-05 3.12e-02  -3.0 9.58e-03    -  1.00e+00 1.00e+00h  1
  51  1.2163742e+02 6.99e-06 9.50e-03  -3.0 7.92e-03    -  1.00e+00 1.00e+00h  1
  52  1.2109326e+02 2.11e-02 2.62e-01  -4.5 3.77e-01    -  8.12e-01 6.22e-01f  1
  53  1.2089270e+02 2.52e-02 1.59e-01  -4.5 4.09e-01    -  6.64e-01 5.64e-01h  1
  54  1.2081244e+02 3.79e-02 1.33e-01  -4.5 3.16e-01    -  5.55e-01 4.73e-01h  1
  55  1.2077964e+02 4.00e-02 1.23e-01  -4.5 3.93e-01    -  5.78e-01 3.63e-01h  1
  56  1.2076744e+02 3.01e-02 1.20e-01  -4.5 3.22e-01    -  8.79e-01 2.30e-01h  1
  57  1.2075152e+02 1.65e-02 1.95e-01  -4.5 3.49e-01    -  8.44e-01 3.59e-01h  1
  58  1.2074057e+02 1.07e-02 2.41e-01  -4.5 2.70e-01    -  1.00e+00 4.32e-01h  1
  59  1.2073249e+02 1.32e-02 1.29e-01  -4.5 1.50e-01    -  7.12e-01 7.20e-01h  1
iter    objective    inf_pr   inf_du lg(mu)  ||d||  lg(rg) alpha_du alpha_pr  ls
  60  1.2073073e+02 2.72e-03 1.26e-01  -4.5 6.62e-02    -  8.87e-01 1.00e+00h  1
  61  1.2073133e+02 1.12e-03 7.91e-02  -4.5 4.41e-02    -  1.00e+00 1.00e+00h  1
  62  1.2073274e+02 2.67e-04 1.90e-02  -4.5 1.71e-02    -  1.00e+00 1.00e+00h  1
  63  1.2073237e+02 4.66e-04 1.72e-02  -4.5 2.97e-02    -  1.00e+00 1.00e+00h  1
  64  1.2073202e+02 4.21e-04 2.68e-02  -4.5 2.63e-01    -  1.00e+00 9.48e-02h  4
  65  1.2073184e+02 3.87e-04 2.88e-02  -4.5 2.93e-01    -  1.00e+00 5.67e-02h  5
  66  1.2073100e+02 4.26e-04 5.91e-02  -4.5 3.05e-01    -  1.00e+00 1.00e+00H  1
  67  1.2072702e+02 4.49e-03 1.73e-01  -4.5 1.55e-01    -  1.00e+00 1.00e+00h  1
  68  1.2072612e+02 8.41e-03 2.26e-01  -4.5 1.00e-01    -  1.00e+00 1.00e+00h  1
  69  1.2072676e+02 2.56e-03 2.11e-01  -4.5 6.45e-02    -  7.94e-01 1.00e+00h  1
iter    objective    inf_pr   inf_du lg(mu)  ||d||  lg(rg) alpha_du alpha_pr  ls
  70  1.2072819e+02 5.61e-04 5.42e-02  -4.5 5.70e-02    -  1.00e+00 1.00e+00h  1
  71  1.2072917e+02 8.12e-04 6.68e-02  -4.5 3.92e-02    -  1.00e+00 1.00e+00h  1
  72  1.2072934e+02 2.78e-04 6.84e-03  -4.5 2.46e-02    -  1.00e+00 1.00e+00h  1
  73  1.2072963e+02 9.91e-06 4.04e-03  -4.5 3.92e-03    -  1.00e+00 1.00e+00h  1
  74  1.2072957e+02 7.93e-05 7.86e-03  -4.5 1.92e-02    -  1.00e+00 1.00e+00h  1
  75  1.2072953e+02 5.20e-06 2.00e-02  -4.5 6.54e-02    -  1.00e+00 1.00e+00H  1
  76  1.2072920e+02 3.81e-04 1.82e-02  -4.5 2.80e-02    -  1.00e+00 1.00e+00h  1
  77  1.2072929e+02 1.65e-04 1.20e-02  -4.5 2.08e-02    -  1.00e+00 1.00e+00h  1
  78  1.2072938e+02 2.08e-05 2.35e-02  -4.5 9.18e-03    -  1.00e+00 1.00e+00h  1
  79  1.2072937e+02 1.39e-05 8.77e-03  -4.5 8.63e-03    -  1.00e+00 1.00e+00h  1
iter    objective    inf_pr   inf_du lg(mu)  ||d||  lg(rg) alpha_du alpha_pr  ls
  80  1.2072933e+02 5.89e-05 3.24e-03  -4.5 1.33e-02    -  1.00e+00 1.00e+00h  1
  81  1.2072932e+02 1.17e-05 1.15e-02  -4.5 5.76e-03    -  1.00e+00 1.00e+00h  1
  82  1.2072932e+02 1.01e-05 1.72e-03  -4.5 6.40e-03    -  1.00e+00 1.00e+00h  1
  83  1.2072932e+02 9.68e-06 9.92e-04  -4.5 5.17e-03    -  1.00e+00 1.00e+00h  1
  84  1.2072929e+02 1.44e-04 1.17e-02  -4.5 1.72e-02    -  1.00e+00 1.00e+00h  1
  85  1.2072927e+02 4.81e-05 1.13e-02  -4.5 1.11e-02    -  1.00e+00 1.00e+00h  1
  86  1.2072928e+02 2.52e-05 2.24e-02  -4.5 6.57e-03    -  1.00e+00 1.00e+00h  1
  87  1.2072929e+02 1.02e-05 7.89e-03  -4.5 4.21e-03    -  1.00e+00 1.00e+00h  1
  88  1.2072929e+02 1.39e-05 7.62e-03  -4.5 5.57e-03    -  1.00e+00 1.00e+00h  1
  89  1.2072927e+02 3.47e-07 2.51e-03  -4.5 1.68e-02    -  1.00e+00 1.00e+00H  1
iter    objective    inf_pr   inf_du lg(mu)  ||d||  lg(rg) alpha_du alpha_pr  ls
  90  1.2072962e+02 1.80e-09 3.79e-02  -4.5 8.92e-02    -  1.00e+00 1.00e+00H  1
  91  1.2072877e+02 1.06e-03 5.78e-03  -4.5 4.99e-02    -  1.00e+00 1.00e+00f  1
  92  1.2072908e+02 1.65e-04 3.97e-02  -4.5 2.07e-02    -  1.00e+00 1.00e+00h  1
  93  1.2072891e+02 1.14e-04 2.12e-03  -4.5 2.24e-02    -  1.00e+00 1.00e+00h  1
  94  1.2072922e+02 1.60e-05 4.81e-03  -4.5 4.23e-03    -  1.00e+00 1.00e+00h  1
  95  1.2072921e+02 5.64e-06 7.60e-04  -4.5 3.27e-03    -  1.00e+00 1.00e+00h  1
  96  1.2072922e+02 5.57e-08 4.98e-04  -4.5 8.33e-04    -  1.00e+00 1.00e+00h  1
  97  1.2072921e+02 2.31e-08 4.37e-03  -4.5 2.09e-02    -  1.00e+00 1.00e+00H  1
  98  1.2072938e+02 4.45e-09 7.69e-02  -4.5 6.26e-02    -  1.00e+00 1.00e+00H  1
  99  1.2072920e+02 2.24e-09 3.58e-03  -4.5 4.49e-02    -  1.00e+00 1.00e+00F  1
iter    objective    inf_pr   inf_du lg(mu)  ||d||  lg(rg) alpha_du alpha_pr  ls
 100  1.2072938e+02 4.68e-10 1.65e-02  -4.5 3.96e-02    -  1.00e+00 1.00e+00H  1
 101  1.2072920e+02 4.57e-08 8.75e-03  -4.5 3.55e-02    -  1.00e+00 1.00e+00F  1
 102  1.2072914e+02 1.84e-04 6.03e-02  -4.5 1.29e-02    -  1.00e+00 1.00e+00h  1
 103  1.2072904e+02 1.29e-04 1.09e-03  -4.5 1.11e-02    -  1.00e+00 1.00e+00h  1
 104  1.2072919e+02 7.05e-08 8.87e-04  -4.5 4.50e-04    -  1.00e+00 1.00e+00h  1
 105  1.2072920e+02 4.56e-07 8.31e-04  -4.5 1.85e-03    -  1.00e+00 1.00e+00h  1
 106  1.2072920e+02 3.30e-05 6.13e-03  -4.5 1.84e-02    -  1.00e+00 1.00e+00h  1
 107  1.2072919e+02 2.95e-05 6.16e-03  -4.5 6.25e-03    -  1.00e+00 1.00e+00h  1
 108  1.2072919e+02 5.29e-06 8.15e-03  -4.5 4.23e-03    -  1.00e+00 1.00e+00h  1
 109  1.2072920e+02 2.11e-06 5.53e-03  -4.5 2.01e-03    -  1.00e+00 1.00e+00h  1
iter    objective    inf_pr   inf_du lg(mu)  ||d||  lg(rg) alpha_du alpha_pr  ls
 110  1.2072920e+02 6.60e-07 2.78e-03  -4.5 1.25e-03    -  1.00e+00 1.00e+00h  1
 111  1.2072920e+02 1.32e-07 1.81e-03  -4.5 1.07e-03    -  1.00e+00 1.00e+00h  1
 112  1.2072920e+02 9.85e-08 1.66e-04  -4.5 4.58e-04    -  1.00e+00 1.00e+00h  1
 113  1.2070975e+02 2.03e-04 1.70e-02  -5.0 1.40e-02    -  1.00e+00 1.00e+00f  1
 114  1.2070844e+02 3.55e-04 5.92e-02  -5.0 3.41e-02    -  1.00e+00 8.90e-01h  1
 115  1.2070794e+02 9.79e-04 3.92e-02  -5.0 4.45e-02    -  1.00e+00 9.22e-01f  1
 116  1.2070797e+02 6.33e-04 3.97e-02  -5.0 3.33e-02    -  1.00e+00 1.00e+00f  1
 117  1.2070836e+02 1.42e-04 2.86e-02  -5.0 7.55e-03    -  1.00e+00 1.00e+00h  1
 118  1.2070838e+02 4.56e-06 8.43e-03  -5.0 4.52e-03    -  1.00e+00 1.00e+00h  1
 119  1.2070824e+02 1.76e-04 1.16e-02  -5.0 2.26e-02    -  1.00e+00 1.00e+00h  1
iter    objective    inf_pr   inf_du lg(mu)  ||d||  lg(rg) alpha_du alpha_pr  ls
 120  1.2070824e+02 6.99e-06 6.00e-02  -5.0 3.11e-02    -  1.00e+00 1.00e+00H  1
 121  1.2070836e+02 1.19e-07 1.89e-02  -5.0 3.59e-02    -  1.00e+00 1.00e+00H  1
 122  1.2070814e+02 3.33e-06 3.86e-03  -5.0 2.30e-02    -  1.00e+00 1.00e+00H  1
 123  1.2070810e+02 4.95e-05 4.97e-03  -5.0 1.12e-02    -  1.00e+00 1.00e+00h  1
 124  1.2070808e+02 7.96e-05 1.98e-03  -5.0 1.51e-02    -  1.00e+00 1.00e+00h  1
 125  1.2070815e+02 1.54e-07 1.82e-02  -5.0 6.41e-02    -  1.00e+00 1.00e+00H  1
 126  1.2070775e+02 3.11e-04 9.63e-03  -5.0 2.39e-02    -  1.00e+00 1.00e+00h  1
 127  1.2070791e+02 1.86e-04 5.62e-03  -5.0 1.02e-02    -  1.00e+00 1.00e+00h  1
 128  1.2070797e+02 8.24e-06 3.16e-03  -5.0 5.99e-03    -  1.00e+00 1.00e+00h  1
 129  1.2070795e+02 3.82e-05 4.90e-03  -5.0 1.86e-02    -  1.00e+00 1.00e+00h  1
iter    objective    inf_pr   inf_du lg(mu)  ||d||  lg(rg) alpha_du alpha_pr  ls
 130  1.2070802e+02 2.57e-06 2.12e-02  -5.0 7.49e-02    -  1.00e+00 1.00e+00H  1
 131  1.2070798e+02 1.15e-05 3.25e-02  -5.0 1.65e-02    -  1.00e+00 1.00e+00H  1
 132  1.2070795e+02 1.33e-05 4.59e-02  -5.0 2.89e-02    -  1.00e+00 1.00e+00H  1
 133  1.2070786e+02 2.77e-05 3.70e-02  -5.0 1.00e-02    -  1.00e+00 1.00e+00h  1
 134  1.2070788e+02 7.81e-06 6.08e-03  -5.0 9.37e-03    -  1.00e+00 1.00e+00h  1
 135  1.2070791e+02 3.76e-06 2.65e-03  -5.0 2.56e-03    -  1.00e+00 1.00e+00h  1
 136  1.2070791e+02 4.73e-07 3.67e-04  -5.0 1.37e-03    -  1.00e+00 1.00e+00h  1
 137  1.2070791e+02 3.16e-07 1.58e-03  -5.0 2.79e-03    -  1.00e+00 1.00e+00h  1
 138  1.2070791e+02 9.33e-08 1.10e-02  -5.0 3.15e-02    -  1.00e+00 1.00e+00H  1
 139  1.2070792e+02 9.72e-09 2.91e-02  -5.0 1.63e-02    -  1.00e+00 1.00e+00H  1
iter    objective    inf_pr   inf_du lg(mu)  ||d||  lg(rg) alpha_du alpha_pr  ls
 140  1.2070783e+02 1.23e-04 1.49e-02  -5.0 1.76e-02    -  1.00e+00 1.00e+00h  1
 141  1.2070786e+02 8.11e-05 4.40e-03  -5.0 8.00e-03    -  1.00e+00 1.00e+00h  1
 142  1.2070787e+02 2.77e-05 8.72e-03  -5.0 8.09e-03    -  1.00e+00 1.00e+00h  1
 143  1.2070787e+02 6.87e-06 1.17e-02  -5.0 6.40e-03    -  1.00e+00 1.00e+00h  1
 144  1.2070787e+02 3.17e-06 5.36e-03  -5.0 3.02e-03    -  1.00e+00 1.00e+00h  1
 145  1.2070788e+02 1.08e-06 1.97e-03  -5.0 1.55e-03    -  1.00e+00 1.00e+00h  1
 146  1.2070788e+02 1.12e-07 4.95e-04  -5.0 2.20e-03    -  1.00e+00 1.00e+00h  1
 147  1.2070787e+02 5.58e-08 3.97e-03  -5.0 3.79e-02    -  1.00e+00 1.00e+00H  1
 148  1.2070794e+02 8.95e-10 3.79e-02  -5.0 4.65e-02    -  1.00e+00 1.00e+00H  1
 149  1.2070794e+02 5.90e-09 3.77e-02  -5.0 2.84e-02    -  1.00e+00 1.95e-03h 10
iter    objective    inf_pr   inf_du lg(mu)  ||d||  lg(rg) alpha_du alpha_pr  ls
 150  1.2070789e+02 1.48e-08 1.30e-02  -5.0 4.67e-02    -  1.00e+00 1.00e+00H  1
 151  1.2070754e+02 3.96e-03 8.87e-02  -5.0 7.93e-02    -  1.00e+00 1.00e+00h  1
 152  1.2070599e+02 4.48e-03 2.17e-02  -5.0 8.78e-02    -  1.00e+00 1.00e+00h  1
 153  1.2070781e+02 1.03e-04 4.36e-02  -5.0 1.20e-02    -  1.00e+00 1.00e+00h  1
 154  1.2070780e+02 5.85e-05 1.58e-02  -5.0 1.00e-02    -  1.00e+00 1.00e+00h  1
 155  1.2070786e+02 6.27e-06 3.82e-03  -5.0 1.38e-03    -  1.00e+00 1.00e+00h  1
 156  1.2070786e+02 2.97e-07 1.35e-03  -5.0 3.39e-04    -  1.00e+00 1.00e+00h  1
 157  1.2070786e+02 4.34e-08 7.14e-04  -5.0 4.92e-04    -  1.00e+00 1.00e+00h  1
 158  1.2070785e+02 6.57e-06 3.86e-03  -5.0 5.65e-03    -  1.00e+00 1.00e+00h  1
 159  1.2070785e+02 1.07e-05 3.61e-03  -5.0 7.04e-03    -  1.00e+00 1.00e+00h  1
iter    objective    inf_pr   inf_du lg(mu)  ||d||  lg(rg) alpha_du alpha_pr  ls
 160  1.2070785e+02 2.06e-06 5.02e-03  -5.0 4.58e-03    -  1.00e+00 1.00e+00h  1
 161  1.2070785e+02 1.04e-05 1.12e-03  -5.0 1.66e-03    -  1.00e+00 1.00e+00h  1
 162  1.2070785e+02 1.41e-07 5.26e-04  -5.0 7.33e-04    -  1.00e+00 1.00e+00h  1
 163  1.2070785e+02 1.54e-06 1.92e-03  -5.0 3.29e-03    -  1.00e+00 1.00e+00h  1
 164  1.2070786e+02 5.13e-09 1.20e-03  -5.0 6.79e-03    -  1.00e+00 1.00e+00H  1
 165  1.2070786e+02 1.96e-10 4.81e-03  -5.0 9.91e-03    -  1.00e+00 1.00e+00H  1
 166  1.2070785e+02 1.55e-05 9.67e-03  -5.0 7.14e-03    -  1.00e+00 1.00e+00h  1
 167  1.2070785e+02 1.53e-05 2.11e-02  -5.0 7.93e-03    -  1.00e+00 1.00e+00h  1
 168  1.2070784e+02 1.89e-05 1.07e-03  -5.0 1.14e-02    -  1.00e+00 1.00e+00h  1
 169  1.2070785e+02 9.92e-06 3.95e-03  -5.0 3.64e-03    -  1.00e+00 5.00e-01h  2
iter    objective    inf_pr   inf_du lg(mu)  ||d||  lg(rg) alpha_du alpha_pr  ls
 170  1.2070785e+02 8.48e-07 6.59e-04  -5.0 1.23e-03    -  1.00e+00 1.00e+00h  1
 171  1.2070785e+02 9.60e-09 6.18e-04  -5.0 1.35e-04    -  1.00e+00 1.00e+00h  1
 172  1.2070785e+02 5.97e-09 7.09e-05  -5.0 2.00e-04    -  1.00e+00 1.00e+00h  1

Number of Iterations....: 172

                                   (scaled)                 (unscaled)
Objective...............:   1.2070785497150243e+02    1.2070785497150243e+02
Dual infeasibility......:   7.0943228268541928e-05    7.0943228268541928e-05
Constraint violation....:   5.9744516579972379e-09    5.9744516579972379e-09
Complementarity.........:   9.0909090909161400e-06    9.0909090909161400e-06
Overall NLP error.......:   7.0943228268541928e-05    7.0943228268541928e-05


Number of objective function evaluations             = 333
Number of objective gradient evaluations             = 173
Number of equality constraint evaluations            = 333
Number of inequality constraint evaluations          = 333
Number of equality constraint Jacobian evaluations   = 173
Number of inequality constraint Jacobian evaluations = 173
Number of Lagrangian Hessian evaluations             = 0
Total CPU secs in IPOPT (w/o function evaluations)   =     15.569
Total CPU secs in NLP function evaluations           =    303.275

EXIT: Optimal Solution Found.
